(set-info :min-time 62.583409989)
; Start decls (32)
(declare-fun b10 () (_ FloatingPoint 8 24))
(declare-fun b101 () (_ FloatingPoint 8 24))
(declare-fun b11 () (_ FloatingPoint 8 24))
(declare-fun b14 () (_ FloatingPoint 8 24))
(declare-fun b17 () (_ FloatingPoint 8 24))
(declare-fun b20 () (_ FloatingPoint 8 24))
(declare-fun b23 () (_ FloatingPoint 8 24))
(declare-fun b26 () (_ FloatingPoint 8 24))
(declare-fun b29 () (_ FloatingPoint 8 24))
(declare-fun b32 () (_ FloatingPoint 8 24))
(declare-fun b35 () (_ FloatingPoint 8 24))
(declare-fun b38 () (_ FloatingPoint 8 24))
(declare-fun b41 () (_ FloatingPoint 8 24))
(declare-fun b44 () (_ FloatingPoint 8 24))
(declare-fun b47 () (_ FloatingPoint 8 24))
(declare-fun b50 () (_ FloatingPoint 8 24))
(declare-fun b53 () (_ FloatingPoint 8 24))
(declare-fun b56 () (_ FloatingPoint 8 24))
(declare-fun b59 () (_ FloatingPoint 8 24))
(declare-fun b62 () (_ FloatingPoint 8 24))
(declare-fun b65 () (_ FloatingPoint 8 24))
(declare-fun b68 () (_ FloatingPoint 8 24))
(declare-fun b71 () (_ FloatingPoint 8 24))
(declare-fun b74 () (_ FloatingPoint 8 24))
(declare-fun b77 () (_ FloatingPoint 8 24))
(declare-fun b80 () (_ FloatingPoint 8 24))
(declare-fun b83 () (_ FloatingPoint 8 24))
(declare-fun b86 () (_ FloatingPoint 8 24))
(declare-fun b89 () (_ FloatingPoint 8 24))
(declare-fun b92 () (_ FloatingPoint 8 24))
(declare-fun b95 () (_ FloatingPoint 8 24))
(declare-fun b98 () (_ FloatingPoint 8 24))
; End decls
; Start constraints (61)
(assert (fp.lt b11 b10))
(assert (let ((a!1 (fp.div roundNearestTiesToEven
                   (fp.div roundNearestTiesToEven
                           (fp.div roundNearestTiesToEven
                                   (fp.div roundNearestTiesToEven b10 b11)
                                   b14)
                           b17)
                   b20)))
(let ((a!2 (fp.div roundNearestTiesToEven
                   (fp.div roundNearestTiesToEven
                           (fp.div roundNearestTiesToEven
                                   (fp.div roundNearestTiesToEven a!1 b23)
                                   b26)
                           b29)
                   b32)))
(let ((a!3 (fp.div roundNearestTiesToEven
                   (fp.div roundNearestTiesToEven
                           (fp.div roundNearestTiesToEven
                                   (fp.div roundNearestTiesToEven a!2 b35)
                                   b38)
                           b41)
                   b44)))
(let ((a!4 (fp.div roundNearestTiesToEven
                   (fp.div roundNearestTiesToEven
                           (fp.div roundNearestTiesToEven
                                   (fp.div roundNearestTiesToEven a!3 b47)
                                   b50)
                           b53)
                   b56)))
(let ((a!5 (fp.div roundNearestTiesToEven
                   (fp.div roundNearestTiesToEven
                           (fp.div roundNearestTiesToEven
                                   (fp.div roundNearestTiesToEven a!4 b59)
                                   b62)
                           b65)
                   b68)))
(let ((a!6 (fp.div roundNearestTiesToEven
                   (fp.div roundNearestTiesToEven
                           (fp.div roundNearestTiesToEven
                                   (fp.div roundNearestTiesToEven a!5 b71)
                                   b74)
                           b77)
                   b80)))
(let ((a!7 (fp.div roundNearestTiesToEven
                   (fp.div roundNearestTiesToEven
                           (fp.div roundNearestTiesToEven
                                   (fp.div roundNearestTiesToEven a!6 b83)
                                   b86)
                           b89)
                   b92)))
  (fp.lt (fp.div roundNearestTiesToEven
                 (fp.div roundNearestTiesToEven a!7 b95)
                 b98)
         b101)))))))))
(assert (fp.leq b101 b11))
(assert (fp.lt b14 (fp.div roundNearestTiesToEven b10 b11)))
(assert (fp.leq b101 b14))
(assert (fp.lt b17
       (fp.div roundNearestTiesToEven
               (fp.div roundNearestTiesToEven b10 b11)
               b14)))
(assert (fp.leq b101 b17))
(assert (fp.lt b20
       (fp.div roundNearestTiesToEven
               (fp.div roundNearestTiesToEven
                       (fp.div roundNearestTiesToEven b10 b11)
                       b14)
               b17)))
(assert (fp.leq b101 b20))
(assert (let ((a!1 (fp.div roundNearestTiesToEven
                   (fp.div roundNearestTiesToEven
                           (fp.div roundNearestTiesToEven
                                   (fp.div roundNearestTiesToEven b10 b11)
                                   b14)
                           b17)
                   b20)))
  (fp.lt b23 a!1)))
(assert (fp.leq b101 b23))
(assert (let ((a!1 (fp.div roundNearestTiesToEven
                   (fp.div roundNearestTiesToEven
                           (fp.div roundNearestTiesToEven
                                   (fp.div roundNearestTiesToEven b10 b11)
                                   b14)
                           b17)
                   b20)))
  (fp.lt b26 (fp.div roundNearestTiesToEven a!1 b23))))
(assert (fp.leq b101 b26))
(assert (let ((a!1 (fp.div roundNearestTiesToEven
                   (fp.div roundNearestTiesToEven
                           (fp.div roundNearestTiesToEven
                                   (fp.div roundNearestTiesToEven b10 b11)
                                   b14)
                           b17)
                   b20)))
  (fp.lt b29
         (fp.div roundNearestTiesToEven
                 (fp.div roundNearestTiesToEven a!1 b23)
                 b26))))
(assert (fp.leq b101 b29))
(assert (let ((a!1 (fp.div roundNearestTiesToEven
                   (fp.div roundNearestTiesToEven
                           (fp.div roundNearestTiesToEven
                                   (fp.div roundNearestTiesToEven b10 b11)
                                   b14)
                           b17)
                   b20)))
  (fp.lt b32
         (fp.div roundNearestTiesToEven
                 (fp.div roundNearestTiesToEven
                         (fp.div roundNearestTiesToEven a!1 b23)
                         b26)
                 b29))))
(assert (fp.leq b101 b32))
(assert (let ((a!1 (fp.div roundNearestTiesToEven
                   (fp.div roundNearestTiesToEven
                           (fp.div roundNearestTiesToEven
                                   (fp.div roundNearestTiesToEven b10 b11)
                                   b14)
                           b17)
                   b20)))
(let ((a!2 (fp.div roundNearestTiesToEven
                   (fp.div roundNearestTiesToEven
                           (fp.div roundNearestTiesToEven
                                   (fp.div roundNearestTiesToEven a!1 b23)
                                   b26)
                           b29)
                   b32)))
  (fp.lt b35 a!2))))
(assert (fp.leq b101 b35))
(assert (let ((a!1 (fp.div roundNearestTiesToEven
                   (fp.div roundNearestTiesToEven
                           (fp.div roundNearestTiesToEven
                                   (fp.div roundNearestTiesToEven b10 b11)
                                   b14)
                           b17)
                   b20)))
(let ((a!2 (fp.div roundNearestTiesToEven
                   (fp.div roundNearestTiesToEven
                           (fp.div roundNearestTiesToEven
                                   (fp.div roundNearestTiesToEven a!1 b23)
                                   b26)
                           b29)
                   b32)))
  (fp.lt b38 (fp.div roundNearestTiesToEven a!2 b35)))))
(assert (fp.leq b101 b38))
(assert (let ((a!1 (fp.div roundNearestTiesToEven
                   (fp.div roundNearestTiesToEven
                           (fp.div roundNearestTiesToEven
                                   (fp.div roundNearestTiesToEven b10 b11)
                                   b14)
                           b17)
                   b20)))
(let ((a!2 (fp.div roundNearestTiesToEven
                   (fp.div roundNearestTiesToEven
                           (fp.div roundNearestTiesToEven
                                   (fp.div roundNearestTiesToEven a!1 b23)
                                   b26)
                           b29)
                   b32)))
  (fp.lt b41
         (fp.div roundNearestTiesToEven
                 (fp.div roundNearestTiesToEven a!2 b35)
                 b38)))))
(assert (fp.leq b101 b41))
(assert (let ((a!1 (fp.div roundNearestTiesToEven
                   (fp.div roundNearestTiesToEven
                           (fp.div roundNearestTiesToEven
                                   (fp.div roundNearestTiesToEven b10 b11)
                                   b14)
                           b17)
                   b20)))
(let ((a!2 (fp.div roundNearestTiesToEven
                   (fp.div roundNearestTiesToEven
                           (fp.div roundNearestTiesToEven
                                   (fp.div roundNearestTiesToEven a!1 b23)
                                   b26)
                           b29)
                   b32)))
  (fp.lt b44
         (fp.div roundNearestTiesToEven
                 (fp.div roundNearestTiesToEven
                         (fp.div roundNearestTiesToEven a!2 b35)
                         b38)
                 b41)))))
(assert (fp.leq b101 b44))
(assert (let ((a!1 (fp.div roundNearestTiesToEven
                   (fp.div roundNearestTiesToEven
                           (fp.div roundNearestTiesToEven
                                   (fp.div roundNearestTiesToEven b10 b11)
                                   b14)
                           b17)
                   b20)))
(let ((a!2 (fp.div roundNearestTiesToEven
                   (fp.div roundNearestTiesToEven
                           (fp.div roundNearestTiesToEven
                                   (fp.div roundNearestTiesToEven a!1 b23)
                                   b26)
                           b29)
                   b32)))
(let ((a!3 (fp.div roundNearestTiesToEven
                   (fp.div roundNearestTiesToEven
                           (fp.div roundNearestTiesToEven
                                   (fp.div roundNearestTiesToEven a!2 b35)
                                   b38)
                           b41)
                   b44)))
  (fp.lt b47 a!3)))))
(assert (fp.leq b101 b47))
(assert (let ((a!1 (fp.div roundNearestTiesToEven
                   (fp.div roundNearestTiesToEven
                           (fp.div roundNearestTiesToEven
                                   (fp.div roundNearestTiesToEven b10 b11)
                                   b14)
                           b17)
                   b20)))
(let ((a!2 (fp.div roundNearestTiesToEven
                   (fp.div roundNearestTiesToEven
                           (fp.div roundNearestTiesToEven
                                   (fp.div roundNearestTiesToEven a!1 b23)
                                   b26)
                           b29)
                   b32)))
(let ((a!3 (fp.div roundNearestTiesToEven
                   (fp.div roundNearestTiesToEven
                           (fp.div roundNearestTiesToEven
                                   (fp.div roundNearestTiesToEven a!2 b35)
                                   b38)
                           b41)
                   b44)))
  (fp.lt b50 (fp.div roundNearestTiesToEven a!3 b47))))))
(assert (fp.leq b101 b50))
(assert (let ((a!1 (fp.div roundNearestTiesToEven
                   (fp.div roundNearestTiesToEven
                           (fp.div roundNearestTiesToEven
                                   (fp.div roundNearestTiesToEven b10 b11)
                                   b14)
                           b17)
                   b20)))
(let ((a!2 (fp.div roundNearestTiesToEven
                   (fp.div roundNearestTiesToEven
                           (fp.div roundNearestTiesToEven
                                   (fp.div roundNearestTiesToEven a!1 b23)
                                   b26)
                           b29)
                   b32)))
(let ((a!3 (fp.div roundNearestTiesToEven
                   (fp.div roundNearestTiesToEven
                           (fp.div roundNearestTiesToEven
                                   (fp.div roundNearestTiesToEven a!2 b35)
                                   b38)
                           b41)
                   b44)))
  (fp.lt b53
         (fp.div roundNearestTiesToEven
                 (fp.div roundNearestTiesToEven a!3 b47)
                 b50))))))
(assert (fp.leq b101 b53))
(assert (let ((a!1 (fp.div roundNearestTiesToEven
                   (fp.div roundNearestTiesToEven
                           (fp.div roundNearestTiesToEven
                                   (fp.div roundNearestTiesToEven b10 b11)
                                   b14)
                           b17)
                   b20)))
(let ((a!2 (fp.div roundNearestTiesToEven
                   (fp.div roundNearestTiesToEven
                           (fp.div roundNearestTiesToEven
                                   (fp.div roundNearestTiesToEven a!1 b23)
                                   b26)
                           b29)
                   b32)))
(let ((a!3 (fp.div roundNearestTiesToEven
                   (fp.div roundNearestTiesToEven
                           (fp.div roundNearestTiesToEven
                                   (fp.div roundNearestTiesToEven a!2 b35)
                                   b38)
                           b41)
                   b44)))
  (fp.lt b56
         (fp.div roundNearestTiesToEven
                 (fp.div roundNearestTiesToEven
                         (fp.div roundNearestTiesToEven a!3 b47)
                         b50)
                 b53))))))
(assert (fp.leq b101 b56))
(assert (let ((a!1 (fp.div roundNearestTiesToEven
                   (fp.div roundNearestTiesToEven
                           (fp.div roundNearestTiesToEven
                                   (fp.div roundNearestTiesToEven b10 b11)
                                   b14)
                           b17)
                   b20)))
(let ((a!2 (fp.div roundNearestTiesToEven
                   (fp.div roundNearestTiesToEven
                           (fp.div roundNearestTiesToEven
                                   (fp.div roundNearestTiesToEven a!1 b23)
                                   b26)
                           b29)
                   b32)))
(let ((a!3 (fp.div roundNearestTiesToEven
                   (fp.div roundNearestTiesToEven
                           (fp.div roundNearestTiesToEven
                                   (fp.div roundNearestTiesToEven a!2 b35)
                                   b38)
                           b41)
                   b44)))
(let ((a!4 (fp.div roundNearestTiesToEven
                   (fp.div roundNearestTiesToEven
                           (fp.div roundNearestTiesToEven
                                   (fp.div roundNearestTiesToEven a!3 b47)
                                   b50)
                           b53)
                   b56)))
  (fp.lt b59 a!4))))))
(assert (fp.leq b101 b59))
(assert (let ((a!1 (fp.div roundNearestTiesToEven
                   (fp.div roundNearestTiesToEven
                           (fp.div roundNearestTiesToEven
                                   (fp.div roundNearestTiesToEven b10 b11)
                                   b14)
                           b17)
                   b20)))
(let ((a!2 (fp.div roundNearestTiesToEven
                   (fp.div roundNearestTiesToEven
                           (fp.div roundNearestTiesToEven
                                   (fp.div roundNearestTiesToEven a!1 b23)
                                   b26)
                           b29)
                   b32)))
(let ((a!3 (fp.div roundNearestTiesToEven
                   (fp.div roundNearestTiesToEven
                           (fp.div roundNearestTiesToEven
                                   (fp.div roundNearestTiesToEven a!2 b35)
                                   b38)
                           b41)
                   b44)))
(let ((a!4 (fp.div roundNearestTiesToEven
                   (fp.div roundNearestTiesToEven
                           (fp.div roundNearestTiesToEven
                                   (fp.div roundNearestTiesToEven a!3 b47)
                                   b50)
                           b53)
                   b56)))
  (fp.lt b62 (fp.div roundNearestTiesToEven a!4 b59)))))))
(assert (fp.leq b101 b62))
(assert (let ((a!1 (fp.div roundNearestTiesToEven
                   (fp.div roundNearestTiesToEven
                           (fp.div roundNearestTiesToEven
                                   (fp.div roundNearestTiesToEven b10 b11)
                                   b14)
                           b17)
                   b20)))
(let ((a!2 (fp.div roundNearestTiesToEven
                   (fp.div roundNearestTiesToEven
                           (fp.div roundNearestTiesToEven
                                   (fp.div roundNearestTiesToEven a!1 b23)
                                   b26)
                           b29)
                   b32)))
(let ((a!3 (fp.div roundNearestTiesToEven
                   (fp.div roundNearestTiesToEven
                           (fp.div roundNearestTiesToEven
                                   (fp.div roundNearestTiesToEven a!2 b35)
                                   b38)
                           b41)
                   b44)))
(let ((a!4 (fp.div roundNearestTiesToEven
                   (fp.div roundNearestTiesToEven
                           (fp.div roundNearestTiesToEven
                                   (fp.div roundNearestTiesToEven a!3 b47)
                                   b50)
                           b53)
                   b56)))
  (fp.lt b65
         (fp.div roundNearestTiesToEven
                 (fp.div roundNearestTiesToEven a!4 b59)
                 b62)))))))
(assert (fp.leq b101 b65))
(assert (let ((a!1 (fp.div roundNearestTiesToEven
                   (fp.div roundNearestTiesToEven
                           (fp.div roundNearestTiesToEven
                                   (fp.div roundNearestTiesToEven b10 b11)
                                   b14)
                           b17)
                   b20)))
(let ((a!2 (fp.div roundNearestTiesToEven
                   (fp.div roundNearestTiesToEven
                           (fp.div roundNearestTiesToEven
                                   (fp.div roundNearestTiesToEven a!1 b23)
                                   b26)
                           b29)
                   b32)))
(let ((a!3 (fp.div roundNearestTiesToEven
                   (fp.div roundNearestTiesToEven
                           (fp.div roundNearestTiesToEven
                                   (fp.div roundNearestTiesToEven a!2 b35)
                                   b38)
                           b41)
                   b44)))
(let ((a!4 (fp.div roundNearestTiesToEven
                   (fp.div roundNearestTiesToEven
                           (fp.div roundNearestTiesToEven
                                   (fp.div roundNearestTiesToEven a!3 b47)
                                   b50)
                           b53)
                   b56)))
  (fp.lt b68
         (fp.div roundNearestTiesToEven
                 (fp.div roundNearestTiesToEven
                         (fp.div roundNearestTiesToEven a!4 b59)
                         b62)
                 b65)))))))
(assert (fp.leq b101 b68))
(assert (let ((a!1 (fp.div roundNearestTiesToEven
                   (fp.div roundNearestTiesToEven
                           (fp.div roundNearestTiesToEven
                                   (fp.div roundNearestTiesToEven b10 b11)
                                   b14)
                           b17)
                   b20)))
(let ((a!2 (fp.div roundNearestTiesToEven
                   (fp.div roundNearestTiesToEven
                           (fp.div roundNearestTiesToEven
                                   (fp.div roundNearestTiesToEven a!1 b23)
                                   b26)
                           b29)
                   b32)))
(let ((a!3 (fp.div roundNearestTiesToEven
                   (fp.div roundNearestTiesToEven
                           (fp.div roundNearestTiesToEven
                                   (fp.div roundNearestTiesToEven a!2 b35)
                                   b38)
                           b41)
                   b44)))
(let ((a!4 (fp.div roundNearestTiesToEven
                   (fp.div roundNearestTiesToEven
                           (fp.div roundNearestTiesToEven
                                   (fp.div roundNearestTiesToEven a!3 b47)
                                   b50)
                           b53)
                   b56)))
(let ((a!5 (fp.div roundNearestTiesToEven
                   (fp.div roundNearestTiesToEven
                           (fp.div roundNearestTiesToEven
                                   (fp.div roundNearestTiesToEven a!4 b59)
                                   b62)
                           b65)
                   b68)))
  (fp.lt b71 a!5)))))))
(assert (fp.leq b101 b71))
(assert (let ((a!1 (fp.div roundNearestTiesToEven
                   (fp.div roundNearestTiesToEven
                           (fp.div roundNearestTiesToEven
                                   (fp.div roundNearestTiesToEven b10 b11)
                                   b14)
                           b17)
                   b20)))
(let ((a!2 (fp.div roundNearestTiesToEven
                   (fp.div roundNearestTiesToEven
                           (fp.div roundNearestTiesToEven
                                   (fp.div roundNearestTiesToEven a!1 b23)
                                   b26)
                           b29)
                   b32)))
(let ((a!3 (fp.div roundNearestTiesToEven
                   (fp.div roundNearestTiesToEven
                           (fp.div roundNearestTiesToEven
                                   (fp.div roundNearestTiesToEven a!2 b35)
                                   b38)
                           b41)
                   b44)))
(let ((a!4 (fp.div roundNearestTiesToEven
                   (fp.div roundNearestTiesToEven
                           (fp.div roundNearestTiesToEven
                                   (fp.div roundNearestTiesToEven a!3 b47)
                                   b50)
                           b53)
                   b56)))
(let ((a!5 (fp.div roundNearestTiesToEven
                   (fp.div roundNearestTiesToEven
                           (fp.div roundNearestTiesToEven
                                   (fp.div roundNearestTiesToEven a!4 b59)
                                   b62)
                           b65)
                   b68)))
  (fp.lt b74 (fp.div roundNearestTiesToEven a!5 b71))))))))
(assert (fp.leq b101 b74))
(assert (let ((a!1 (fp.div roundNearestTiesToEven
                   (fp.div roundNearestTiesToEven
                           (fp.div roundNearestTiesToEven
                                   (fp.div roundNearestTiesToEven b10 b11)
                                   b14)
                           b17)
                   b20)))
(let ((a!2 (fp.div roundNearestTiesToEven
                   (fp.div roundNearestTiesToEven
                           (fp.div roundNearestTiesToEven
                                   (fp.div roundNearestTiesToEven a!1 b23)
                                   b26)
                           b29)
                   b32)))
(let ((a!3 (fp.div roundNearestTiesToEven
                   (fp.div roundNearestTiesToEven
                           (fp.div roundNearestTiesToEven
                                   (fp.div roundNearestTiesToEven a!2 b35)
                                   b38)
                           b41)
                   b44)))
(let ((a!4 (fp.div roundNearestTiesToEven
                   (fp.div roundNearestTiesToEven
                           (fp.div roundNearestTiesToEven
                                   (fp.div roundNearestTiesToEven a!3 b47)
                                   b50)
                           b53)
                   b56)))
(let ((a!5 (fp.div roundNearestTiesToEven
                   (fp.div roundNearestTiesToEven
                           (fp.div roundNearestTiesToEven
                                   (fp.div roundNearestTiesToEven a!4 b59)
                                   b62)
                           b65)
                   b68)))
  (fp.lt b77
         (fp.div roundNearestTiesToEven
                 (fp.div roundNearestTiesToEven a!5 b71)
                 b74))))))))
(assert (fp.leq b101 b77))
(assert (let ((a!1 (fp.div roundNearestTiesToEven
                   (fp.div roundNearestTiesToEven
                           (fp.div roundNearestTiesToEven
                                   (fp.div roundNearestTiesToEven b10 b11)
                                   b14)
                           b17)
                   b20)))
(let ((a!2 (fp.div roundNearestTiesToEven
                   (fp.div roundNearestTiesToEven
                           (fp.div roundNearestTiesToEven
                                   (fp.div roundNearestTiesToEven a!1 b23)
                                   b26)
                           b29)
                   b32)))
(let ((a!3 (fp.div roundNearestTiesToEven
                   (fp.div roundNearestTiesToEven
                           (fp.div roundNearestTiesToEven
                                   (fp.div roundNearestTiesToEven a!2 b35)
                                   b38)
                           b41)
                   b44)))
(let ((a!4 (fp.div roundNearestTiesToEven
                   (fp.div roundNearestTiesToEven
                           (fp.div roundNearestTiesToEven
                                   (fp.div roundNearestTiesToEven a!3 b47)
                                   b50)
                           b53)
                   b56)))
(let ((a!5 (fp.div roundNearestTiesToEven
                   (fp.div roundNearestTiesToEven
                           (fp.div roundNearestTiesToEven
                                   (fp.div roundNearestTiesToEven a!4 b59)
                                   b62)
                           b65)
                   b68)))
  (fp.lt b80
         (fp.div roundNearestTiesToEven
                 (fp.div roundNearestTiesToEven
                         (fp.div roundNearestTiesToEven a!5 b71)
                         b74)
                 b77))))))))
(assert (fp.leq b101 b80))
(assert (let ((a!1 (fp.div roundNearestTiesToEven
                   (fp.div roundNearestTiesToEven
                           (fp.div roundNearestTiesToEven
                                   (fp.div roundNearestTiesToEven b10 b11)
                                   b14)
                           b17)
                   b20)))
(let ((a!2 (fp.div roundNearestTiesToEven
                   (fp.div roundNearestTiesToEven
                           (fp.div roundNearestTiesToEven
                                   (fp.div roundNearestTiesToEven a!1 b23)
                                   b26)
                           b29)
                   b32)))
(let ((a!3 (fp.div roundNearestTiesToEven
                   (fp.div roundNearestTiesToEven
                           (fp.div roundNearestTiesToEven
                                   (fp.div roundNearestTiesToEven a!2 b35)
                                   b38)
                           b41)
                   b44)))
(let ((a!4 (fp.div roundNearestTiesToEven
                   (fp.div roundNearestTiesToEven
                           (fp.div roundNearestTiesToEven
                                   (fp.div roundNearestTiesToEven a!3 b47)
                                   b50)
                           b53)
                   b56)))
(let ((a!5 (fp.div roundNearestTiesToEven
                   (fp.div roundNearestTiesToEven
                           (fp.div roundNearestTiesToEven
                                   (fp.div roundNearestTiesToEven a!4 b59)
                                   b62)
                           b65)
                   b68)))
(let ((a!6 (fp.div roundNearestTiesToEven
                   (fp.div roundNearestTiesToEven
                           (fp.div roundNearestTiesToEven
                                   (fp.div roundNearestTiesToEven a!5 b71)
                                   b74)
                           b77)
                   b80)))
  (fp.lt b83 a!6))))))))
(assert (fp.leq b101 b83))
(assert (let ((a!1 (fp.div roundNearestTiesToEven
                   (fp.div roundNearestTiesToEven
                           (fp.div roundNearestTiesToEven
                                   (fp.div roundNearestTiesToEven b10 b11)
                                   b14)
                           b17)
                   b20)))
(let ((a!2 (fp.div roundNearestTiesToEven
                   (fp.div roundNearestTiesToEven
                           (fp.div roundNearestTiesToEven
                                   (fp.div roundNearestTiesToEven a!1 b23)
                                   b26)
                           b29)
                   b32)))
(let ((a!3 (fp.div roundNearestTiesToEven
                   (fp.div roundNearestTiesToEven
                           (fp.div roundNearestTiesToEven
                                   (fp.div roundNearestTiesToEven a!2 b35)
                                   b38)
                           b41)
                   b44)))
(let ((a!4 (fp.div roundNearestTiesToEven
                   (fp.div roundNearestTiesToEven
                           (fp.div roundNearestTiesToEven
                                   (fp.div roundNearestTiesToEven a!3 b47)
                                   b50)
                           b53)
                   b56)))
(let ((a!5 (fp.div roundNearestTiesToEven
                   (fp.div roundNearestTiesToEven
                           (fp.div roundNearestTiesToEven
                                   (fp.div roundNearestTiesToEven a!4 b59)
                                   b62)
                           b65)
                   b68)))
(let ((a!6 (fp.div roundNearestTiesToEven
                   (fp.div roundNearestTiesToEven
                           (fp.div roundNearestTiesToEven
                                   (fp.div roundNearestTiesToEven a!5 b71)
                                   b74)
                           b77)
                   b80)))
  (fp.lt b86 (fp.div roundNearestTiesToEven a!6 b83)))))))))
(assert (fp.leq b101 b86))
(assert (let ((a!1 (fp.div roundNearestTiesToEven
                   (fp.div roundNearestTiesToEven
                           (fp.div roundNearestTiesToEven
                                   (fp.div roundNearestTiesToEven b10 b11)
                                   b14)
                           b17)
                   b20)))
(let ((a!2 (fp.div roundNearestTiesToEven
                   (fp.div roundNearestTiesToEven
                           (fp.div roundNearestTiesToEven
                                   (fp.div roundNearestTiesToEven a!1 b23)
                                   b26)
                           b29)
                   b32)))
(let ((a!3 (fp.div roundNearestTiesToEven
                   (fp.div roundNearestTiesToEven
                           (fp.div roundNearestTiesToEven
                                   (fp.div roundNearestTiesToEven a!2 b35)
                                   b38)
                           b41)
                   b44)))
(let ((a!4 (fp.div roundNearestTiesToEven
                   (fp.div roundNearestTiesToEven
                           (fp.div roundNearestTiesToEven
                                   (fp.div roundNearestTiesToEven a!3 b47)
                                   b50)
                           b53)
                   b56)))
(let ((a!5 (fp.div roundNearestTiesToEven
                   (fp.div roundNearestTiesToEven
                           (fp.div roundNearestTiesToEven
                                   (fp.div roundNearestTiesToEven a!4 b59)
                                   b62)
                           b65)
                   b68)))
(let ((a!6 (fp.div roundNearestTiesToEven
                   (fp.div roundNearestTiesToEven
                           (fp.div roundNearestTiesToEven
                                   (fp.div roundNearestTiesToEven a!5 b71)
                                   b74)
                           b77)
                   b80)))
  (fp.lt b89
         (fp.div roundNearestTiesToEven
                 (fp.div roundNearestTiesToEven a!6 b83)
                 b86)))))))))
(assert (fp.leq b101 b89))
(assert (let ((a!1 (fp.div roundNearestTiesToEven
                   (fp.div roundNearestTiesToEven
                           (fp.div roundNearestTiesToEven
                                   (fp.div roundNearestTiesToEven b10 b11)
                                   b14)
                           b17)
                   b20)))
(let ((a!2 (fp.div roundNearestTiesToEven
                   (fp.div roundNearestTiesToEven
                           (fp.div roundNearestTiesToEven
                                   (fp.div roundNearestTiesToEven a!1 b23)
                                   b26)
                           b29)
                   b32)))
(let ((a!3 (fp.div roundNearestTiesToEven
                   (fp.div roundNearestTiesToEven
                           (fp.div roundNearestTiesToEven
                                   (fp.div roundNearestTiesToEven a!2 b35)
                                   b38)
                           b41)
                   b44)))
(let ((a!4 (fp.div roundNearestTiesToEven
                   (fp.div roundNearestTiesToEven
                           (fp.div roundNearestTiesToEven
                                   (fp.div roundNearestTiesToEven a!3 b47)
                                   b50)
                           b53)
                   b56)))
(let ((a!5 (fp.div roundNearestTiesToEven
                   (fp.div roundNearestTiesToEven
                           (fp.div roundNearestTiesToEven
                                   (fp.div roundNearestTiesToEven a!4 b59)
                                   b62)
                           b65)
                   b68)))
(let ((a!6 (fp.div roundNearestTiesToEven
                   (fp.div roundNearestTiesToEven
                           (fp.div roundNearestTiesToEven
                                   (fp.div roundNearestTiesToEven a!5 b71)
                                   b74)
                           b77)
                   b80)))
  (fp.lt b92
         (fp.div roundNearestTiesToEven
                 (fp.div roundNearestTiesToEven
                         (fp.div roundNearestTiesToEven a!6 b83)
                         b86)
                 b89)))))))))
(assert (fp.leq b101 b92))
(assert (let ((a!1 (fp.div roundNearestTiesToEven
                   (fp.div roundNearestTiesToEven
                           (fp.div roundNearestTiesToEven
                                   (fp.div roundNearestTiesToEven b10 b11)
                                   b14)
                           b17)
                   b20)))
(let ((a!2 (fp.div roundNearestTiesToEven
                   (fp.div roundNearestTiesToEven
                           (fp.div roundNearestTiesToEven
                                   (fp.div roundNearestTiesToEven a!1 b23)
                                   b26)
                           b29)
                   b32)))
(let ((a!3 (fp.div roundNearestTiesToEven
                   (fp.div roundNearestTiesToEven
                           (fp.div roundNearestTiesToEven
                                   (fp.div roundNearestTiesToEven a!2 b35)
                                   b38)
                           b41)
                   b44)))
(let ((a!4 (fp.div roundNearestTiesToEven
                   (fp.div roundNearestTiesToEven
                           (fp.div roundNearestTiesToEven
                                   (fp.div roundNearestTiesToEven a!3 b47)
                                   b50)
                           b53)
                   b56)))
(let ((a!5 (fp.div roundNearestTiesToEven
                   (fp.div roundNearestTiesToEven
                           (fp.div roundNearestTiesToEven
                                   (fp.div roundNearestTiesToEven a!4 b59)
                                   b62)
                           b65)
                   b68)))
(let ((a!6 (fp.div roundNearestTiesToEven
                   (fp.div roundNearestTiesToEven
                           (fp.div roundNearestTiesToEven
                                   (fp.div roundNearestTiesToEven a!5 b71)
                                   b74)
                           b77)
                   b80)))
(let ((a!7 (fp.div roundNearestTiesToEven
                   (fp.div roundNearestTiesToEven
                           (fp.div roundNearestTiesToEven
                                   (fp.div roundNearestTiesToEven a!6 b83)
                                   b86)
                           b89)
                   b92)))
  (fp.lt b95 a!7)))))))))
(assert (fp.leq b101 b95))
(assert (let ((a!1 (fp.div roundNearestTiesToEven
                   (fp.div roundNearestTiesToEven
                           (fp.div roundNearestTiesToEven
                                   (fp.div roundNearestTiesToEven b10 b11)
                                   b14)
                           b17)
                   b20)))
(let ((a!2 (fp.div roundNearestTiesToEven
                   (fp.div roundNearestTiesToEven
                           (fp.div roundNearestTiesToEven
                                   (fp.div roundNearestTiesToEven a!1 b23)
                                   b26)
                           b29)
                   b32)))
(let ((a!3 (fp.div roundNearestTiesToEven
                   (fp.div roundNearestTiesToEven
                           (fp.div roundNearestTiesToEven
                                   (fp.div roundNearestTiesToEven a!2 b35)
                                   b38)
                           b41)
                   b44)))
(let ((a!4 (fp.div roundNearestTiesToEven
                   (fp.div roundNearestTiesToEven
                           (fp.div roundNearestTiesToEven
                                   (fp.div roundNearestTiesToEven a!3 b47)
                                   b50)
                           b53)
                   b56)))
(let ((a!5 (fp.div roundNearestTiesToEven
                   (fp.div roundNearestTiesToEven
                           (fp.div roundNearestTiesToEven
                                   (fp.div roundNearestTiesToEven a!4 b59)
                                   b62)
                           b65)
                   b68)))
(let ((a!6 (fp.div roundNearestTiesToEven
                   (fp.div roundNearestTiesToEven
                           (fp.div roundNearestTiesToEven
                                   (fp.div roundNearestTiesToEven a!5 b71)
                                   b74)
                           b77)
                   b80)))
(let ((a!7 (fp.div roundNearestTiesToEven
                   (fp.div roundNearestTiesToEven
                           (fp.div roundNearestTiesToEven
                                   (fp.div roundNearestTiesToEven a!6 b83)
                                   b86)
                           b89)
                   b92)))
  (fp.lt b98 (fp.div roundNearestTiesToEven a!7 b95))))))))))
(assert (fp.leq b101 b98))
; End constraints
(check-sat)
